0 57 
1 61 
2 61 
3 59 
4 59 
5 59 
6 58 
7 58 
8 59 
9 56 
10 51 
11 49 
12 46 
13 49 
14 46 
15 46 
16 43 
17 44 
18 38 
19 36 
20 35 
21 32 
22 30 
23 27 
24 25 
25 24 
26 22 
27 23 
28 21 
29 18 
30 16 
31 15 
32 14 
33 9 
34 8 
35 6 
36 4 
37 3 
38 3 
39 3 
40 3 
41 1 
42 2 
43 1 
44 0 
45 0 

